c A SAT instance generated from a 3-CNF formula that had 26 clauses and 13 variables
p cnf 13 26
-4 -6 -12 0
5 6 7 0
-8 -7 -2 0
-5 -10 4 0
-2 -11 -5 0
-4 -9 10 0
-2 4 -5 0
13 10 -1 0
-3 12 -5 0
-11 -3 5 0
-4 -6 -7 0
9 -5 -3 0
4 -5 -7 0
-12 -1 3 0
-13 -6 2 0
-8 10 -12 0
4 6 11 0
9 4 7 0
-6 4 -2 0
5 6 8 0
12 13 -5 0
13 -7 -12 0
-3 -5 -7 0
1 13 -7 0
-13 -6 -11 0
-3 7 -13 0
